unsat
(define-fun SC ((s (_ BitVec 4)) (t (_ BitVec 4))) Bool (bvuge (bvsub s #b0001) t))
0.34user 0.01system 0:00.36elapsed 99%CPU (0avgtext+0avgdata 32856maxresident)k
0inputs+8outputs (0major+2789minor)pagefaults 0swaps
